(set-option :produce-models true)
(set-logic QF_UF)
(declare-fun p112() Bool)
(declare-fun p74() Bool)
(declare-fun p22() Bool)
(declare-fun p69() Bool)
(declare-fun p64() Bool)
(declare-fun p77() Bool)
(declare-fun p43() Bool)
(declare-fun p32() Bool)
(declare-fun p56() Bool)
(declare-fun p9() Bool)
(declare-fun p4() Bool)
(declare-fun p86() Bool)
(declare-fun p83() Bool)
(declare-fun p52() Bool)
(declare-fun p84() Bool)
(declare-fun p79() Bool)
(declare-fun p110() Bool)
(declare-fun p15() Bool)
(declare-fun p39() Bool)
(declare-fun p82() Bool)
(declare-fun p91() Bool)
(declare-fun p0() Bool)
(declare-fun p106() Bool)
(declare-fun p59() Bool)
(declare-fun p78() Bool)
(declare-fun p51() Bool)
(declare-fun p96() Bool)
(declare-fun p103() Bool)
(declare-fun p23() Bool)
(declare-fun p117() Bool)
(declare-fun p28() Bool)
(declare-fun p70() Bool)
(declare-fun p100() Bool)
(declare-fun p66() Bool)
(declare-fun p88() Bool)
(declare-fun p107() Bool)
(declare-fun p63() Bool)
(declare-fun p62() Bool)
(declare-fun p2() Bool)
(declare-fun p55() Bool)
(declare-fun p87() Bool)
(declare-fun p5() Bool)
(declare-fun p34() Bool)
(declare-fun p12() Bool)
(declare-fun p21() Bool)
(declare-fun p73() Bool)
(declare-fun p13() Bool)
(declare-fun p10() Bool)
(declare-fun p90() Bool)
(declare-fun p11() Bool)
(declare-fun p108() Bool)
(declare-fun p17() Bool)
(declare-fun p20() Bool)
(declare-fun p42() Bool)
(declare-fun p101() Bool)
(declare-fun p29() Bool)
(declare-fun p72() Bool)
(declare-fun p14() Bool)
(declare-fun p24() Bool)
(declare-fun p89() Bool)
(declare-fun p92() Bool)
(declare-fun p7() Bool)
(declare-fun p68() Bool)
(declare-fun p45() Bool)
(declare-fun p94() Bool)
(declare-fun p30() Bool)
(declare-fun p16() Bool)
(declare-fun p44() Bool)
(declare-fun p50() Bool)
(declare-fun p37() Bool)
(declare-fun p113() Bool)
(declare-fun p38() Bool)
(declare-fun p41() Bool)
(declare-fun p26() Bool)
(declare-fun p81() Bool)
(declare-fun p111() Bool)
(declare-fun p119() Bool)
(declare-fun p33() Bool)
(declare-fun p98() Bool)
(declare-fun p25() Bool)
(declare-fun p85() Bool)
(declare-fun p76() Bool)
(declare-fun p118() Bool)
(declare-fun p60() Bool)
(declare-fun p27() Bool)
(declare-fun p6() Bool)
(declare-fun p75() Bool)
(declare-fun p3() Bool)
(declare-fun p8() Bool)
(declare-fun p116() Bool)
(declare-fun p71() Bool)
(declare-fun p99() Bool)
(declare-fun p102() Bool)
(declare-fun p67() Bool)
(declare-fun p65() Bool)
(declare-fun p109() Bool)
(declare-fun p49() Bool)
(declare-fun p104() Bool)
(declare-fun p46() Bool)
(declare-fun p115() Bool)
(declare-fun p97() Bool)
(declare-fun p80() Bool)
(declare-fun p18() Bool)
(declare-fun p95() Bool)
(declare-fun p36() Bool)
(declare-fun p105() Bool)
(declare-fun p53() Bool)
(declare-fun p61() Bool)
(declare-fun p35() Bool)
(declare-fun p47() Bool)
(declare-fun p54() Bool)
(declare-fun p57() Bool)
(declare-fun p58() Bool)
(declare-fun p114() Bool)
(declare-fun p40() Bool)
(declare-fun p19() Bool)
(declare-fun p93() Bool)
(declare-fun p1() Bool)
(declare-fun p48() Bool)
(declare-fun p31() Bool)
(assert
(and (or p112 (not p74) (not p22)) (or (not p69) (not p64) p77) (or p43 (not p32) (not p56)) (or (not p9) p4 (not p86)) (or (not p83) (not p52) p84) (or p79 p110 (not p56)) (or p15 p39 (not p82)) (or p91 (not p0) p106) (or p59 (not p78) (not p51)) (or (not p96) (not p103) p23) (or p84 (not p117) (not p28)) (or p70 (not p100) (not p66)) (or (not p88) (not p107) (not p63)) (or p62 p2 (not p55)) (or (not p87) (not p66) p5) (or (not p66) (not p34) (not p32)) (or (not p12) (not p21) p110) (or (not p84) (not p73) p74) (or (not p13) p10 (not p90)) (or p11 p108 p17) (or (not p20) (not p42) (not p101)) (or p84 p20 p29) (or p13 p72 p14) (or p52 (not p24) p91) (or p89 (not p92) (not p12)) (or (not p7) p68 p87) (or p45 p59 p94) (or p23 p30 (not p69)) (or (not p16) p64 p44) (or (not p43) p14 (not p50)) (or (not p37) p113 p73) (or (not p38) p41 p26) (or (not p81) (not p111) (not p91)) (or (not p88) p119 (not p33)) (or p9 p42 p45) (or (not p89) (not p119) p98) (or p12 (not p25) p110) (or p112 p87 p85) (or (not p15) (not p76) p21) (or (not p44) p62 (not p13)) (or p118 (not p72) (not p60)) (or (not p98) p91 (not p28)) (or (not p41) (not p101) p94) (or (not p100) (not p76) (not p76)) (or (not p51) (not p112) p27) (or (not p51) p34 p23) (or p29 p63 p113) (or p6 (not p41) (not p118)) (or p45 p29 p59) (or p24 p75 p7) (or p96 p85 p91) (or (not p91) (not p76) (not p75)) (or p73 p117 (not p87)) (or p90 (not p17) p37) (or (not p42) p3 (not p73)) (or (not p76) (not p8) p9) (or p59 (not p116) p116) (or p71 p45 p107) (or (not p51) (not p99) p88) (or (not p38) (not p81) p41) (or p103 p23 p113) (or p42 (not p102) p67) (or p68 (not p67) (not p24)) (or (not p74) (not p8) (not p84)) (or (not p72) (not p81) (not p14)) (or (not p0) (not p111) (not p26)) (or p8 p43 p9) (or (not p100) (not p103) p7) (or (not p29) p106 (not p73)) (or p87 p92 p106) (or (not p65) p20 p62) (or (not p78) (not p11) p88) (or (not p78) (not p109) p34) (or p59 (not p74) (not p106)) (or p96 (not p108) (not p110)) (or (not p112) (not p44) (not p76)) (or (not p45) (not p49) (not p104)) (or (not p15) p67 (not p51)) (or (not p68) p77 (not p42)) (or p46 (not p115) p14) (or p97 p87 (not p83)) (or (not p46) p43 (not p80)) (or (not p76) (not p20) (not p113)) (or (not p21) (not p88) (not p110)) (or (not p70) p83 p106) (or (not p84) p18 (not p113)) (or (not p96) (not p23) (not p111)) (or (not p75) (not p77) p100) (or p95 (not p62) p23) (or p36 (not p14) p86) (or p105 (not p103) p21) (or p106 p83 (not p55)) (or p53 (not p32) (not p61)) (or p79 (not p35) p84) (or p97 p92 p2) (or p81 (not p47) p118) (or p104 p4 (not p59)) (or (not p111) (not p74) p30) (or (not p54) p16 p63) (or (not p79) p10 p106) (or p3 p83 p49) (or (not p38) p59 p18) (or (not p65) (not p11) p113) (or (not p12) (not p115) p54) (or p94 p43 (not p57)) (or (not p55) (not p112) p5) (or p68 p69 (not p96)) (or p86 (not p98) p92) (or p76 (not p32) p73) (or p72 (not p88) (not p53)) (or p104 (not p25) (not p116)) (or (not p109) p58 (not p77)) (or (not p61) (not p9) p116) (or p49 p45 p114) (or p51 p46 p104) (or (not p20) (not p35) (not p5)) (or p53 (not p46) (not p47)) (or (not p12) p18 p40) (or p25 p88 p103) (or (not p20) (not p3) (not p104)) (or (not p34) p118 (not p113)) (or p10 p92 p92) (or (not p2) p92 p42) (or p46 (not p47) p76) (or p4 p78 p115) (or (not p79) (not p115) (not p58)) (or p82 p18 p76) (or (not p109) (not p10) (not p45)) (or (not p14) (not p75) p38) (or (not p18) p45 (not p8)) (or (not p103) (not p28) (not p77)) (or (not p21) p113 p63) (or p106 (not p32) (not p43)) (or p35 (not p0) (not p18)) (or (not p75) (not p5) p43) (or p116 p90 (not p59)) (or (not p43) (not p20) (not p37)) (or (not p34) (not p57) (not p81)) (or p81 (not p45) p87) (or (not p35) p64 p10) (or p107 (not p27) p3) (or p25 (not p70) p89) (or (not p4) p23 (not p44)) (or p33 (not p44) p14) (or (not p4) p45 p17) (or p30 (not p28) (not p111)) (or p51 (not p44) p19) (or (not p108) p74 (not p75)) (or (not p43) (not p93) (not p77)) (or (not p24) p102 p76) (or (not p82) p90 p42) (or p53 (not p54) (not p34)) (or p95 (not p87) (not p110)) (or (not p44) (not p11) p106) (or (not p35) p62 p115) (or (not p47) (not p66) (not p117)) (or p97 p93 (not p88)) (or p36 (not p73) p104) (or p9 (not p72) p89) (or p43 p62 (not p52)) (or (not p101) p35 (not p11)) (or p108 p68 (not p100)) (or p45 p100 (not p69)) (or (not p43) (not p99) p42) (or (not p55) (not p70) (not p51)) (or p17 p29 (not p13)) (or p50 (not p94) (not p55)) (or p96 (not p12) (not p20)) (or p64 p108 (not p74)) (or (not p47) (not p33) (not p67)) (or p51 (not p79) (not p1)) (or (not p43) (not p75) (not p64)) (or (not p46) (not p14) (not p57)) (or p86 (not p32) (not p100)) (or (not p109) (not p100) p109) (or (not p100) p84 (not p118)) (or (not p66) (not p80) p13) (or (not p81) (not p94) (not p13)) (or p72 (not p77) (not p71)) (or (not p50) p41 (not p5)) (or (not p37) p113 (not p14)) (or (not p59) p1 p58) (or p6 p89 p110) (or p80 p2 (not p69)) (or (not p51) p55 (not p58)) (or p103 p14 (not p26)) (or (not p30) p104 p76) (or p32 (not p88) p4) (or p25 (not p33) (not p87)) (or p12 p58 p75) (or (not p107) p90 (not p29)) (or (not p47) p21 p63) (or p26 p8 (not p118)) (or (not p18) (not p35) p22) (or (not p110) p36 p28) (or (not p4) p34 (not p71)) (or p44 p48 (not p92)) (or (not p116) p105 (not p72)) (or p115 p18 p9) (or (not p70) p46 p53) (or (not p89) (not p73) (not p4)) (or p59 (not p68) (not p6)) (or (not p63) (not p8) p16) (or p40 (not p54) (not p99)) (or (not p89) p19 p8) (or (not p67) (not p42) p2) (or p23 p42 (not p99)) (or p52 (not p110) p8) (or (not p5) p6 (not p14)) (or p93 (not p5) (not p15)) (or p108 p98 (not p24)) (or p97 (not p43) p16) (or (not p5) p64 (not p70)) (or (not p50) p55 p53) (or (not p83) (not p65) (not p102)) (or (not p74) p20 p38) (or p10 (not p64) (not p113)) (or (not p15) p75 (not p90)) (or p73 p102 p40) (or (not p5) p116 (not p110)) (or (not p118) (not p15) p53) (or (not p10) (not p33) (not p119)) (or p84 p84 (not p92)) (or p85 p5 p99) (or p49 p86 p116) (or p8 (not p70) (not p91)) (or (not p109) p39 (not p46)) (or p52 p91 (not p26)) (or p111 (not p3) (not p115)) (or (not p81) p109 p71) (or (not p90) (not p86) (not p110)) (or (not p72) p34 p81) (or p28 p85 (not p111)) (or (not p17) (not p62) p94) (or p0 p51 (not p81)) (or p89 p46 p71) (or (not p112) p96 (not p20)) (or (not p69) (not p73) p111) (or p30 (not p110) p107) (or p27 (not p14) (not p97)) (or p102 (not p115) (not p63)) (or (not p119) (not p118) (not p105)) (or (not p69) (not p82) p10) (or (not p118) (not p21) (not p94)) (or (not p96) (not p85) p106) (or (not p15) (not p61) (not p35)) (or p83 (not p15) p6) (or p56 (not p78) p80) (or (not p7) (not p38) (not p87)) (or (not p23) (not p109) p53) (or p64 (not p85) p28) (or p91 p75 (not p63)) (or p78 (not p26) p93) (or p58 (not p11) p32) (or (not p40) (not p34) p19) (or p9 (not p9) (not p115)) (or p45 (not p105) (not p79)) (or (not p17) (not p88) (not p70)) (or (not p103) p90 p62) (or (not p40) p41 (not p30)) (or p106 p81 (not p51)) (or p50 (not p111) (not p14)) (or p19 (not p12) p17) (or p91 (not p118) (not p4)) (or p114 p86 p15) (or p63 p106 p23) (or p91 p5 (not p79)) (or p47 (not p39) (not p8)) (or p47 (not p16) p72) (or p38 (not p0) p102) (or p21 (not p45) (not p56)) (or p70 (not p9) p116) (or p52 p18 p28) (or (not p35) p93 (not p63)) (or (not p62) p39 (not p88)) (or p60 (not p11) p20) (or (not p83) p100 (not p46)) (or p111 p70 (not p45)) (or (not p35) (not p69) p2) (or p116 (not p102) (not p103)) (or (not p110) p95 p24) (or p76 p55 p71) (or (not p45) (not p1) (not p68)) (or p86 (not p96) (not p107)) (or p92 p78 (not p3)) (or p112 (not p35) (not p89)) (or (not p26) p8 (not p29)) (or p70 (not p85) (not p108)) (or (not p50) (not p100) p44) (or (not p10) (not p119) p10) (or (not p54) p80 p90) (or p12 (not p9) (not p41)) (or p10 p48 p97) (or (not p77) (not p19) (not p64)) (or (not p73) (not p81) (not p110)) (or (not p99) (not p5) (not p3)) (or (not p82) p29 p33) (or p38 p14 p85) (or (not p10) (not p9) p80) (or p88 (not p60) (not p34)) (or p90 p31 p48) (or p84 (not p20) p44) (or (not p66) (not p57) p22) (or (not p66) (not p81) p69) (or (not p80) p105 p112) (or (not p28) p22 (not p61)) (or p59 (not p109) (not p15)) (or p88 (not p1) (not p110)) (or (not p48) p10 p29) (or p87 p7 p106) (or p79 (not p48) (not p63)) (or (not p27) p23 (not p96)) (or (not p20) p117 (not p40)) (or (not p82) p55 p84) (or (not p14) p21 p68) (or (not p72) p88 (not p86)) (or (not p35) p8 (not p85)) (or p0 p37 (not p102)) (or (not p7) (not p58) p110) (or p98 p53 p41) (or (not p117) p116 p16) (or (not p63) (not p117) p85) (or p40 (not p110) (not p52)) (or (not p18) p95 p85) (or (not p100) (not p60) (not p24)) (or (not p36) p36 p41) (or p105 (not p50) (not p57)) (or (not p20) (not p67) p17) (or p70 (not p105) p23) (or p13 (not p28) (not p12)) (or p75 p60 p30) (or p0 p2 (not p1)) (or (not p93) p50 (not p81)) (or (not p58) (not p40) p61) (or p103 p72 p9) (or (not p33) p28 p41) (or p105 (not p26) (not p9)) (or (not p31) p101 p80) (or (not p81) (not p89) p51) (or (not p21) p18 (not p48)) (or p61 (not p89) (not p75)) (or (not p90) p59 (not p100)) (or p99 p77 (not p8)) (or p89 (not p37) (not p6)) (or (not p21) (not p21) (not p100)) (or (not p20) p55 p1) (or (not p78) p70 p80) (or (not p15) p63 p68) (or p49 p2 (not p45)) (or (not p55) p86 p13) (or (not p83) (not p52) (not p59)) (or (not p55) p77 (not p94)) (or p2 (not p37) (not p109)) (or (not p11) (not p32) p34) (or p41 p87 (not p57)) (or p104 p54 p119) (or (not p82) p31 p69) (or p53 (not p14) (not p31)) (or p39 (not p9) (not p71)) (or (not p42) p52 (not p50)) (or (not p58) p61 (not p6)) (or p118 p9 (not p105)) (or p105 (not p114) (not p86)) (or (not p25) p45 (not p96)) (or p45 (not p52) (not p79)) (or p36 (not p1) p100) (or (not p40) p20 (not p118)) (or p64 p101 p35) (or (not p65) (not p82) p114) (or (not p8) (not p62) p90) (or p107 (not p22) p72) (or (not p15) p106 (not p86)) (or p20 (not p88) p13) (or p84 p86 (not p48)) (or p2 p30 (not p50)) (or (not p81) (not p36) (not p22)) (or p76 p27 (not p30)) (or p47 p52 (not p8)) (or (not p9) p111 p75) (or p79 p1 p96) (or (not p80) p18 p55) (or p119 (not p33) p56) (or (not p18) p114 (not p87)) (or (not p43) p49 (not p88)) (or (not p84) (not p51) (not p88)) (or (not p27) p18 p30) (or p19 p72 (not p69)) (or (not p98) p67 p20) (or p58 p79 p115) (or (not p35) p70 (not p116)) (or p47 (not p35) (not p43)) (or p33 p108 (not p91)) (or p99 (not p60) (not p90)) (or (not p102) (not p17) p70) (or (not p89) p46 p4) (or (not p114) p104 p77) (or (not p44) p65 (not p5)) (or p46 (not p17) (not p94)) (or (not p19) p59 p88) (or (not p18) (not p16) (not p56)) (or p4 p116 p119) (or p2 (not p85) p57) (or (not p101) p97 p98) (or (not p75) p23 p43) (or (not p91) (not p32) (not p63)) (or (not p65) p93 (not p105)) (or p1 (not p73) p95) (or (not p57) (not p73) (not p3)) (or (not p46) (not p35) p27) (or (not p103) p82 p47) (or (not p92) (not p69) (not p114)) (or (not p115) p17 p24) (or (not p110) (not p68) p112) (or p6 (not p67) (not p108)) (or (not p39) (not p56) (not p30)) (or p56 (not p30) p35) (or (not p24) (not p41) p22) (or (not p43) (not p0) (not p67)) (or p36 p52 (not p107)) (or p115 p66 p118) (or (not p15) p31 (not p7)) (or (not p90) (not p7) (not p77)) (or (not p117) (not p37) p33) (or (not p4) p0 (not p71)) (or (not p92) (not p3) p96) (or p80 (not p57) p65) (or (not p14) (not p92) p83) (or (not p108) (not p112) p91) (or p23 (not p38) (not p31)) (or (not p45) p31 (not p30)) (or p10 (not p55) p43) (or p61 p41 p35) (or (not p103) p94 (not p92)) (or p90 p46 p24) (or p91 p46 (not p20)) (or (not p20) p83 p29) (or (not p44) p79 (not p36)) (or p45 p27 (not p68)) (or (not p52) (not p24) (not p109)) (or (not p44) (not p102) p65) (or (not p14) p16 p47) (or (not p87) (not p29) (not p97)) (or (not p42) (not p43) p9) (or (not p71) p20 p62) (or p94 p114 p11) (or (not p87) (not p47) p116) (or (not p0) p34 p68) (or p83 p31 (not p65)) (or p9 (not p85) (not p41)) (or (not p78) p39 p110) (or (not p87) (not p32) p16) (or (not p111) (not p22) (not p26)) (or p84 (not p35) p45) (or (not p103) p101 p53) (or (not p100) p25 p62) (or (not p33) (not p2) p51) (or p18 p62 p114) (or p57 p43 p117) (or p84 (not p73) (not p48)) (or p93 (not p65) (not p77)) (or p2 (not p61) (not p91)) (or p51 (not p77) p90) (or (not p107) p46 (not p52)) (or (not p44) p12 p16) (or (not p93) (not p82) p93) (or (not p116) (not p52) p11) (or p90 p48 p75) (or p46 (not p10) (not p46)) (or p69 (not p104) p25) (or p13 p13 (not p109)) (or (not p47) p104 (not p7)) (or (not p109) p97 p85) (or (not p81) (not p47) (not p95)) (or p116 (not p49) p2) (or (not p63) (not p38) (not p52)) (or p64 p13 p88) (or (not p76) (not p106) (not p21)) (or (not p110) (not p81) p37) (or p63 p36 (not p22)) (or (not p64) (not p112) (not p32)) (or (not p20) (not p105) (not p79)) (or p9 p65 p44) (or p88 (not p63) p96) (or p99 p44 (not p100)) (or (not p103) (not p16) p80) (or (not p44) (not p117) (not p17)) (or (not p113) p29 p29) (or (not p90) p80 p10) (or (not p113) p96 p45) (or (not p101) p35 (not p86)) (or (not p103) p113 p23) (or p25 p62 p96) (or p50 (not p108) (not p18)) (or (not p30) p63 (not p3)) (or p0 p67 p13) (or p42 p70 (not p68)) (or p59 (not p61) p14) (or p3 p101 p47) (or (not p109) p108 p115) (or (not p62) p66 p116) (or p17 (not p87) (not p33)) (or p83 p102 p7) (or p38 (not p22) p82) (or p90 (not p77) p66) (or (not p82) (not p52) (not p109)) (or p98 (not p2) (not p102)) (or p15 p17 p86) (or (not p65) (not p17) (not p96)) (or p35 p104 (not p114)) (or p111 (not p78) p99) (or p1 (not p10) (not p7)) (or (not p52) (not p61) p4) (or p12 (not p1) (not p18)) (or (not p56) (not p67) p72) (or p28 p22 (not p87)) (or (not p50) (not p104) (not p104)) (or p90 p65 (not p36)) (or p119 (not p2) p61) (or (not p40) (not p59) (not p106)) (or p101 p93 (not p56)) (or p28 (not p119) (not p78)) (or p40 p55 (not p0)) (or (not p4) p31 p12) (or (not p91) (not p84) p89) (or (not p1) (not p71) (not p115)) (or p41 p113 p72) (or (not p21) p105 p45) (or p77 (not p25) p18) (or p53 (not p74) (not p115)) (or (not p100) (not p107) (not p118)) (or (not p40) p93 (not p8)) (or (not p7) p93 p73) (or p51 (not p88) (not p57)) (or (not p21) (not p51) (not p103)) (or (not p44) p101 p17) (or (not p53) p78 (not p77)) (or p62 (not p19) p7) (or p44 (not p84) p98) (or (not p63) p1 (not p101)) (or p87 p12 p83) (or p105 p86 (not p77)) (or (not p47) (not p97) (not p65)) (or (not p81) p40 (not p107)) (or (not p72) (not p114) (not p48)) (or p118 (not p51) p8) (or p62 (not p104) p110) (or (not p78) p16 (not p57)) (or (not p72) (not p117) (not p50)) (or (not p59) p58 p70) (or p27 (not p65) (not p36)) (or p21 p25 p113) (or p28 (not p5) p90) (or p63 p13 p103) (or (not p85) p26 p72) (or p61 (not p72) p51) (or (not p23) p55 p66) (or p84 (not p112) (not p87)) (or (not p24) (not p112) (not p75)) (or p40 (not p110) (not p21)) (or p111 (not p75) p71) (or (not p118) (not p47) p88) (or p19 p116 (not p54)) (or (not p0) p16 (not p109)) (or p14 (not p47) p106) (or (not p57) p48 (not p108)) (or p6 (not p63) p65) (or (not p70) (not p8) (not p40)) (or (not p67) p64 (not p97)) (or p104 p80 (not p31)) (or (not p15) p43 (not p48)) (or p10 p58 p115) (or p77 (not p113) p85) (or p105 (not p34) p114) (or (not p32) (not p47) p108) (or (not p21) (not p66) p38) (or (not p83) p75 (not p72)) (or (not p109) p9 (not p43)) (or (not p104) p54 (not p98)) (or (not p18) (not p26) (not p41)) (or (not p10) p80 p69) (or p21 (not p7) p18) (or (not p116) p29 (not p83)) (or p99 p42 (not p111)) (or p20 p93 (not p115)) (or (not p15) (not p71) (not p118)) (or (not p56) p80 (not p88)) (or (not p113) (not p7) (not p63)) (or p34 (not p10) (not p48)) (or p0 (not p53) (not p69)) (or (not p47) p39 p113) (or p67 p117 p59) (or p22 (not p111) (not p6)) (or p75 (not p94) (not p25)) (or (not p3) (not p114) p89) (or (not p40) p0 (not p104)) (or (not p22) p62 (not p100)) (or p78 (not p10) p103) (or p34 (not p30) (not p56)) (or (not p16) (not p53) p75))
)
(check-sat)
(get-model)
